c AI planning file sortnetsort5.AE.stepl.007.qcnf (Jussi.Rintanen@NICTA.com.au)
p cnf 1376 2327 
a 49 50 51 52 53 54 55 56 57 58 59 60 61 62 63 64 65 66 67 68 69 70 71 72 73 74 75 76 77 78 79 80 81 82 83 84 85 86 87 88 89 90 91 92 93 94 95 96 97 98 99 100 101 102 103 104 105 106 107 108 109 110 111 112 113 114 115 116 117 118 119 120 121 122 123 124 125 126 127 128 129 130 131 132 133 134 135 136 137 138 139 140 141 142 1113 1114 1115 1116 1117 1118 1119 1120 1121 1122 1123 1124 1125 1126 1127 1128 1129 1130 1131 1132 1133 1134 1135 1136 1157 1158 1159 1160 1161 1162 1163 1164 1165 1166 1167 1168 1169 1170 1171 1172 1173 1174 1175 1176 1177 1178 1179 1180 1201 1202 1203 1204 1205 1206 1207 1208 1209 1210 1211 1212 1213 1214 1215 1216 1217 1218 1219 1220 1221 1222 1223 1224 1245 1246 1247 1248 1249 1250 1251 1252 1253 1254 1255 1256 1257 1258 1259 1260 1261 1262 1263 1264 1265 1266 1267 1268 1289 1290 1291 1292 1293 1294 1295 1296 1297 1298 1299 1300 1301 1302 1303 1304 1305 1306 1307 1308 1309 1310 1311 1312 1333 1334 1335 1336 1337 1338 1339 1340 1341 1342 1343 1344 1345 1346 1347 1348 1349 1350 1351 1352 1353 1354 1355 1356 0
e 1 2 3 4 5 6 7 8 9 10 11 12 13 14 15 16 17 18 19 20 21 22 23 24 25 26 27 28 29 30 31 32 33 34 35 36 37 38 39 40 41 42 43 44 45 46 47 48 143 144 145 146 147 148 149 150 151 152 153 154 155 156 157 158 159 160 161 162 163 164 165 166 167 168 169 170 171 172 173 174 175 176 177 178 179 180 181 182 183 184 185 186 187 188 189 190 191 192 193 194 195 196 197 198 199 200 201 202 203 204 205 206 207 208 209 210 211 212 213 214 215 216 217 218 219 220 221 222 223 224 225 226 227 228 229 230 231 232 233 234 235 236 237 238 239 240 241 242 243 244 245 246 247 248 249 250 251 252 253 254 255 256 257 258 259 260 261 262 263 264 265 266 267 268 269 270 271 272 273 274 275 276 277 278 279 280 281 282 283 284 285 286 287 288 289 290 291 292 293 294 295 296 297 298 299 300 301 302 303 304 305 306 307 308 309 310 311 312 313 314 315 316 317 318 319 320 321 322 323 324 325 326 327 328 329 330 331 332 333 334 335 336 337 338 339 340 341 342 343 344 345 346 347 348 349 350 351 352 353 354 355 356 357 358 359 360 361 362 363 364 365 366 367 368 369 370 371 372 373 374 375 376 377 378 379 380 381 382 383 384 385 386 387 388 389 390 391 392 393 394 395 396 397 398 399 400 401 402 403 404 405 406 407 408 409 410 411 412 413 414 415 416 417 418 419 420 421 422 423 424 425 426 427 428 429 430 431 432 433 434 435 436 437 438 439 440 441 442 443 444 445 446 447 448 449 450 451 452 453 454 455 456 457 458 459 460 461 462 463 464 465 466 467 468 469 470 471 472 473 474 475 476 477 478 479 480 481 482 483 484 485 486 487 488 489 490 491 492 493 494 495 496 497 498 499 500 501 502 503 504 505 506 507 508 509 510 511 512 513 514 515 516 517 518 519 520 521 522 523 524 525 526 527 528 529 530 531 532 533 534 535 536 537 538 539 540 541 542 543 544 545 546 547 548 549 550 551 552 553 554 555 556 557 558 559 560 561 562 563 564 565 566 567 568 569 570 571 572 573 574 575 576 577 578 579 580 581 582 583 584 585 586 587 588 589 590 591 592 593 594 595 596 597 598 599 600 601 602 603 604 605 606 607 608 609 610 611 612 613 614 615 616 617 618 619 620 621 622 623 624 625 626 627 628 629 630 631 632 633 634 635 636 637 638 639 640 641 642 643 644 645 646 647 648 649 650 651 652 653 654 655 656 657 658 659 660 661 662 663 664 665 666 667 668 669 670 671 672 673 674 675 676 677 678 679 680 681 682 683 684 685 686 687 688 689 690 691 692 693 694 695 696 697 698 699 700 701 702 703 704 705 706 707 708 709 710 711 712 713 714 715 716 717 718 719 720 721 722 723 724 725 726 727 728 729 730 731 732 733 734 735 736 737 738 739 740 741 742 743 744 745 746 747 748 749 750 751 752 753 754 755 756 757 758 759 760 761 762 763 764 765 766 767 768 769 770 771 772 773 774 775 776 777 778 779 780 781 782 783 784 785 786 787 788 789 790 791 792 793 794 795 796 797 798 799 800 801 802 803 804 805 806 807 808 809 810 811 812 813 814 815 816 817 818 819 820 821 822 823 824 825 826 827 828 829 830 831 832 833 834 835 836 837 838 839 840 841 842 843 844 845 846 847 848 849 850 851 852 853 854 855 856 857 858 859 860 861 862 863 864 865 866 867 868 869 870 871 872 873 874 875 876 877 878 879 880 881 882 883 884 885 886 887 888 889 890 891 892 893 894 895 896 897 898 899 900 901 902 903 904 905 906 907 908 909 910 911 912 913 914 915 916 917 918 919 920 921 922 923 924 925 926 927 928 929 930 931 932 933 934 935 936 937 938 939 940 941 942 943 944 945 946 947 948 949 950 951 952 953 954 955 956 957 958 959 960 961 962 963 964 965 966 967 968 969 970 971 972 973 974 975 976 977 978 979 980 981 982 983 984 985 986 987 988 989 990 991 992 993 994 995 996 997 998 999 1000 1001 1002 1003 1004 1005 1006 1007 1008 1009 1010 1011 1012 1013 1014 1015 1016 1017 1018 1019 1020 1021 1022 1023 1024 1025 1026 1027 1028 1029 1030 1031 1032 1033 1034 1035 1036 1037 1038 1039 1040 1041 1042 1043 1044 1045 1046 1047 1048 1049 1050 1051 1052 1053 1054 1055 1056 1057 1058 1059 1060 1061 1062 1063 1064 1065 1066 1067 1068 1069 1070 1071 1072 1073 1074 1075 1076 1077 1078 1079 1080 1081 1082 1083 1084 1085 1086 1087 1088 1089 1090 1091 1092 1093 1094 1095 1096 1097 1098 1099 1100 1101 1102 1103 1104 1105 1106 1107 1108 1109 1110 1111 1112 1137 1138 1139 1140 1141 1142 1143 1144 1145 1146 1147 1148 1149 1150 1151 1152 1153 1154 1155 1156 1181 1182 1183 1184 1185 1186 1187 1188 1189 1190 1191 1192 1193 1194 1195 1196 1197 1198 1199 1200 1225 1226 1227 1228 1229 1230 1231 1232 1233 1234 1235 1236 1237 1238 1239 1240 1241 1242 1243 1244 1269 1270 1271 1272 1273 1274 1275 1276 1277 1278 1279 1280 1281 1282 1283 1284 1285 1286 1287 1288 1313 1314 1315 1316 1317 1318 1319 1320 1321 1322 1323 1324 1325 1326 1327 1328 1329 1330 1331 1332 1357 1358 1359 1360 1361 1362 1363 1364 1365 1366 1367 1368 1369 1370 1371 1372 1373 1374 1375 1376 0
524 525 526 527 528 529 530 531 532 533 534 535 536 537 538 539 540 541 542 543 544 545 546 547 548 549 550 551 552 553 554 555 556 557 558 559 560 561 562 563 564 565 566 567 568 569 570 571 572 573 574 575 576 577 578 579 580 581 582 583 584 585 586 587 588 589 590 591 592 593 594 595 596 597 598 599 600 601 602 603 604 605 606 607 608 609 610 611 612 613 614 615 616 617 618 619 620 621 622 623 624 625 626 627 628 629 630 631 632 633 634 635 636 637 638 639 640 641 642 643 644 645 646 647 648 649 650 651 652 653 654 655 656 657 658 659 660 661 662 663 664 665 666 667 668 669 670 671 672 673 674 675 676 677 678 679 680 681 682 683 684 685 686 687 688 689 690 691 692 693 694 695 696 697 698 699 700 701 702 703 704 705 706 707 708 709 710 711 712 713 714 715 716 717 718 719 720 721 722 723 724 725 726 727 728 729 730 731 732 733 734 735 736 737 738 739 740 741 742 743 744 745 746 747 748 749 750 751 752 753 754 755 756 757 758 759 760 761 762 763 764 765 766 767 768 769 770 771 772 773 774 775 776 777 778 779 780 781 782 783 784 785 786 787 788 789 790 791 792 793 794 795 796 797 798 799 800 801 802 803 804 805 806 807 808 809 810 811 812 813 814 815 816 817 818 819 820 821 822 823 824 825 826 827 828 829 830 831 832 833 834 835 836 837 838 839 840 841 842 843 844 845 846 847 848 849 850 851 852 853 854 855 856 857 858 859 860 861 862 863 864 865 866 867 868 869 870 871 872 873 874 875 876 877 878 879 880 881 882 883 884 885 886 887 888 889 890 891 892 893 894 895 896 897 898 899 900 901 902 903 904 905 906 907 908 909 910 911 912 913 914 915 916 917 918 919 920 921 922 923 924 925 926 927 928 929 930 931 932 933 934 935 936 937 938 939 940 941 942 943 944 945 946 947 948 949 950 951 952 953 954 955 956 957 958 959 960 961 962 963 964 965 966 967 968 969 970 971 972 973 974 975 976 977 978 979 980 981 982 983 984 985 986 987 988 989 990 991 992 993 994 995 996 997 998 999 1000 1001 1002 1003 1004 1005 1006 1007 1008 1009 1010 1011 1012 1013 1014 1015 1016 1017 1018 1019 1020 1021 1022 1023 1024 1025 1026 1027 1028 1029 1030 1031 1032 1033 1034 1035 1036 1037 1038 1039 1040 1041 1042 1043 1044 1045 1046 1047 1048 1049 1050 1051 1052 1053 1054 1055 1056 1057 1058 1059 1060 1061 1062 1063 1064 1065 1066 1067 1068 1069 1070 1071 1072 1073 1074 1075 1076 1077 1078 1079 1080 1081 1082 1083 1084 1085 1086 1087 1088 1089 1090 1091 1092 1093 1094 1095 1096 1097 1098 1099 1100 1101 1102 1103 1104 1105 1106 1107 1108 1109 1110 1111 1112 0
-524 513 514 515 516 517 518 519 520 521 522 523 0
-525 129 0
-525 -130 0
-526 52 0
-526 -130 0
-527 129 0
-527 52 0
-528 128 0
-528 -129 0
-529 51 0
-529 -129 0
-530 128 0
-530 51 0
-531 49 0
-531 -128 0
-532 50 0
-532 -128 0
-533 49 0
-533 50 0
-534 126 0
-534 -127 0
-535 55 0
-535 -127 0
-536 126 0
-536 55 0
-537 53 0
-537 -126 0
-538 54 0
-538 -126 0
-539 53 0
-539 54 0
-540 49 0
-540 55 0
-541 49 0
-541 54 0
-542 49 0
-542 53 0
-543 56 0
-543 -125 0
-544 57 0
-544 -125 0
-545 56 0
-545 57 0
-546 124 0
-546 57 0
-547 124 0
-547 56 0
-548 50 0
-548 -124 0
-549 53 0
-549 -124 0
-550 50 0
-550 53 0
-551 123 0
-551 58 0
-552 122 0
-552 -123 0
-553 56 0
-553 -123 0
-554 122 0
-554 56 0
-555 51 0
-555 -122 0
-556 54 0
-556 -122 0
-557 51 0
-557 54 0
-558 120 0
-558 -121 0
-559 58 0
-559 -121 0
-560 120 0
-560 58 0
-561 119 0
-561 -120 0
-562 57 0
-562 -120 0
-563 119 0
-563 57 0
-564 52 0
-564 -119 0
-565 55 0
-565 -119 0
-566 52 0
-566 55 0
-567 141 0
-567 -142 0
-568 49 0
-568 -142 0
-569 141 0
-569 49 0
-570 140 0
-570 -141 0
-571 50 0
-571 -141 0
-572 140 0
-572 50 0
-573 52 0
-573 -140 0
-574 51 0
-574 -140 0
-575 52 0
-575 51 0
-576 139 0
-576 49 0
-577 138 0
-577 -139 0
-578 53 0
-578 -139 0
-579 138 0
-579 53 0
-580 55 0
-580 -138 0
-581 54 0
-581 -138 0
-582 55 0
-582 54 0
-583 137 0
-583 50 0
-584 137 0
-584 53 0
-585 57 0
-585 -137 0
-586 56 0
-586 -137 0
-587 57 0
-587 56 0
-588 53 0
-588 -136 0
-589 50 0
-589 -136 0
-590 53 0
-590 50 0
-591 58 0
-591 51 0
-592 58 0
-592 54 0
-593 58 0
-593 56 0
-594 134 0
-594 -135 0
-595 51 0
-595 -135 0
-596 134 0
-596 51 0
-597 56 0
-597 -134 0
-598 54 0
-598 -134 0
-599 56 0
-599 54 0
-600 132 0
-600 -133 0
-601 52 0
-601 -133 0
-602 132 0
-602 52 0
-603 131 0
-603 -132 0
-604 55 0
-604 -132 0
-605 131 0
-605 55 0
-606 58 0
-606 -131 0
-607 57 0
-607 -131 0
-608 58 0
-608 57 0
-609 1123 0
-609 -1124 0
-610 62 0
-610 -1124 0
-611 1123 0
-611 62 0
-612 1122 0
-612 -1123 0
-613 61 0
-613 -1123 0
-614 1122 0
-614 61 0
-615 59 0
-615 -1122 0
-616 60 0
-616 -1122 0
-617 59 0
-617 60 0
-618 1120 0
-618 -1121 0
-619 65 0
-619 -1121 0
-620 1120 0
-620 65 0
-621 63 0
-621 -1120 0
-622 64 0
-622 -1120 0
-623 63 0
-623 64 0
-624 59 0
-624 65 0
-625 59 0
-625 64 0
-626 59 0
-626 63 0
-627 66 0
-627 -1119 0
-628 67 0
-628 -1119 0
-629 66 0
-629 67 0
-630 1118 0
-630 67 0
-631 1118 0
-631 66 0
-632 60 0
-632 -1118 0
-633 63 0
-633 -1118 0
-634 60 0
-634 63 0
-635 1117 0
-635 68 0
-636 1116 0
-636 -1117 0
-637 66 0
-637 -1117 0
-638 1116 0
-638 66 0
-639 61 0
-639 -1116 0
-640 64 0
-640 -1116 0
-641 61 0
-641 64 0
-642 1114 0
-642 -1115 0
-643 68 0
-643 -1115 0
-644 1114 0
-644 68 0
-645 1113 0
-645 -1114 0
-646 67 0
-646 -1114 0
-647 1113 0
-647 67 0
-648 62 0
-648 -1113 0
-649 65 0
-649 -1113 0
-650 62 0
-650 65 0
-651 1135 0
-651 -1136 0
-652 59 0
-652 -1136 0
-653 1135 0
-653 59 0
-654 1134 0
-654 -1135 0
-655 60 0
-655 -1135 0
-656 1134 0
-656 60 0
-657 62 0
-657 -1134 0
-658 61 0
-658 -1134 0
-659 62 0
-659 61 0
-660 1133 0
-660 59 0
-661 1132 0
-661 -1133 0
-662 63 0
-662 -1133 0
-663 1132 0
-663 63 0
-664 65 0
-664 -1132 0
-665 64 0
-665 -1132 0
-666 65 0
-666 64 0
-667 1131 0
-667 60 0
-668 1131 0
-668 63 0
-669 67 0
-669 -1131 0
-670 66 0
-670 -1131 0
-671 67 0
-671 66 0
-672 63 0
-672 -1130 0
-673 60 0
-673 -1130 0
-674 63 0
-674 60 0
-675 68 0
-675 61 0
-676 68 0
-676 64 0
-677 68 0
-677 66 0
-678 1128 0
-678 -1129 0
-679 61 0
-679 -1129 0
-680 1128 0
-680 61 0
-681 66 0
-681 -1128 0
-682 64 0
-682 -1128 0
-683 66 0
-683 64 0
-684 1126 0
-684 -1127 0
-685 62 0
-685 -1127 0
-686 1126 0
-686 62 0
-687 1125 0
-687 -1126 0
-688 65 0
-688 -1126 0
-689 1125 0
-689 65 0
-690 68 0
-690 -1125 0
-691 67 0
-691 -1125 0
-692 68 0
-692 67 0
-693 1167 0
-693 -1168 0
-694 72 0
-694 -1168 0
-695 1167 0
-695 72 0
-696 1166 0
-696 -1167 0
-697 71 0
-697 -1167 0
-698 1166 0
-698 71 0
-699 69 0
-699 -1166 0
-700 70 0
-700 -1166 0
-701 69 0
-701 70 0
-702 1164 0
-702 -1165 0
-703 75 0
-703 -1165 0
-704 1164 0
-704 75 0
-705 73 0
-705 -1164 0
-706 74 0
-706 -1164 0
-707 73 0
-707 74 0
-708 69 0
-708 75 0
-709 69 0
-709 74 0
-710 69 0
-710 73 0
-711 76 0
-711 -1163 0
-712 77 0
-712 -1163 0
-713 76 0
-713 77 0
-714 1162 0
-714 77 0
-715 1162 0
-715 76 0
-716 70 0
-716 -1162 0
-717 73 0
-717 -1162 0
-718 70 0
-718 73 0
-719 1161 0
-719 78 0
-720 1160 0
-720 -1161 0
-721 76 0
-721 -1161 0
-722 1160 0
-722 76 0
-723 71 0
-723 -1160 0
-724 74 0
-724 -1160 0
-725 71 0
-725 74 0
-726 1158 0
-726 -1159 0
-727 78 0
-727 -1159 0
-728 1158 0
-728 78 0
-729 1157 0
-729 -1158 0
-730 77 0
-730 -1158 0
-731 1157 0
-731 77 0
-732 72 0
-732 -1157 0
-733 75 0
-733 -1157 0
-734 72 0
-734 75 0
-735 1179 0
-735 -1180 0
-736 69 0
-736 -1180 0
-737 1179 0
-737 69 0
-738 1178 0
-738 -1179 0
-739 70 0
-739 -1179 0
-740 1178 0
-740 70 0
-741 72 0
-741 -1178 0
-742 71 0
-742 -1178 0
-743 72 0
-743 71 0
-744 1177 0
-744 69 0
-745 1176 0
-745 -1177 0
-746 73 0
-746 -1177 0
-747 1176 0
-747 73 0
-748 75 0
-748 -1176 0
-749 74 0
-749 -1176 0
-750 75 0
-750 74 0
-751 1175 0
-751 70 0
-752 1175 0
-752 73 0
-753 77 0
-753 -1175 0
-754 76 0
-754 -1175 0
-755 77 0
-755 76 0
-756 73 0
-756 -1174 0
-757 70 0
-757 -1174 0
-758 73 0
-758 70 0
-759 78 0
-759 71 0
-760 78 0
-760 74 0
-761 78 0
-761 76 0
-762 1172 0
-762 -1173 0
-763 71 0
-763 -1173 0
-764 1172 0
-764 71 0
-765 76 0
-765 -1172 0
-766 74 0
-766 -1172 0
-767 76 0
-767 74 0
-768 1170 0
-768 -1171 0
-769 72 0
-769 -1171 0
-770 1170 0
-770 72 0
-771 1169 0
-771 -1170 0
-772 75 0
-772 -1170 0
-773 1169 0
-773 75 0
-774 78 0
-774 -1169 0
-775 77 0
-775 -1169 0
-776 78 0
-776 77 0
-777 1211 0
-777 -1212 0
-778 82 0
-778 -1212 0
-779 1211 0
-779 82 0
-780 1210 0
-780 -1211 0
-781 81 0
-781 -1211 0
-782 1210 0
-782 81 0
-783 79 0
-783 -1210 0
-784 80 0
-784 -1210 0
-785 79 0
-785 80 0
-786 1208 0
-786 -1209 0
-787 85 0
-787 -1209 0
-788 1208 0
-788 85 0
-789 83 0
-789 -1208 0
-790 84 0
-790 -1208 0
-791 83 0
-791 84 0
-792 79 0
-792 85 0
-793 79 0
-793 84 0
-794 79 0
-794 83 0
-795 86 0
-795 -1207 0
-796 87 0
-796 -1207 0
-797 86 0
-797 87 0
-798 1206 0
-798 87 0
-799 1206 0
-799 86 0
-800 80 0
-800 -1206 0
-801 83 0
-801 -1206 0
-802 80 0
-802 83 0
-803 1205 0
-803 88 0
-804 1204 0
-804 -1205 0
-805 86 0
-805 -1205 0
-806 1204 0
-806 86 0
-807 81 0
-807 -1204 0
-808 84 0
-808 -1204 0
-809 81 0
-809 84 0
-810 1202 0
-810 -1203 0
-811 88 0
-811 -1203 0
-812 1202 0
-812 88 0
-813 1201 0
-813 -1202 0
-814 87 0
-814 -1202 0
-815 1201 0
-815 87 0
-816 82 0
-816 -1201 0
-817 85 0
-817 -1201 0
-818 82 0
-818 85 0
-819 1223 0
-819 -1224 0
-820 79 0
-820 -1224 0
-821 1223 0
-821 79 0
-822 1222 0
-822 -1223 0
-823 80 0
-823 -1223 0
-824 1222 0
-824 80 0
-825 82 0
-825 -1222 0
-826 81 0
-826 -1222 0
-827 82 0
-827 81 0
-828 1221 0
-828 79 0
-829 1220 0
-829 -1221 0
-830 83 0
-830 -1221 0
-831 1220 0
-831 83 0
-832 85 0
-832 -1220 0
-833 84 0
-833 -1220 0
-834 85 0
-834 84 0
-835 1219 0
-835 80 0
-836 1219 0
-836 83 0
-837 87 0
-837 -1219 0
-838 86 0
-838 -1219 0
-839 87 0
-839 86 0
-840 83 0
-840 -1218 0
-841 80 0
-841 -1218 0
-842 83 0
-842 80 0
-843 88 0
-843 81 0
-844 88 0
-844 84 0
-845 88 0
-845 86 0
-846 1216 0
-846 -1217 0
-847 81 0
-847 -1217 0
-848 1216 0
-848 81 0
-849 86 0
-849 -1216 0
-850 84 0
-850 -1216 0
-851 86 0
-851 84 0
-852 1214 0
-852 -1215 0
-853 82 0
-853 -1215 0
-854 1214 0
-854 82 0
-855 1213 0
-855 -1214 0
-856 85 0
-856 -1214 0
-857 1213 0
-857 85 0
-858 88 0
-858 -1213 0
-859 87 0
-859 -1213 0
-860 88 0
-860 87 0
-861 1255 0
-861 -1256 0
-862 92 0
-862 -1256 0
-863 1255 0
-863 92 0
-864 1254 0
-864 -1255 0
-865 91 0
-865 -1255 0
-866 1254 0
-866 91 0
-867 89 0
-867 -1254 0
-868 90 0
-868 -1254 0
-869 89 0
-869 90 0
-870 1252 0
-870 -1253 0
-871 95 0
-871 -1253 0
-872 1252 0
-872 95 0
-873 93 0
-873 -1252 0
-874 94 0
-874 -1252 0
-875 93 0
-875 94 0
-876 89 0
-876 95 0
-877 89 0
-877 94 0
-878 89 0
-878 93 0
-879 96 0
-879 -1251 0
-880 97 0
-880 -1251 0
-881 96 0
-881 97 0
-882 1250 0
-882 97 0
-883 1250 0
-883 96 0
-884 90 0
-884 -1250 0
-885 93 0
-885 -1250 0
-886 90 0
-886 93 0
-887 1249 0
-887 98 0
-888 1248 0
-888 -1249 0
-889 96 0
-889 -1249 0
-890 1248 0
-890 96 0
-891 91 0
-891 -1248 0
-892 94 0
-892 -1248 0
-893 91 0
-893 94 0
-894 1246 0
-894 -1247 0
-895 98 0
-895 -1247 0
-896 1246 0
-896 98 0
-897 1245 0
-897 -1246 0
-898 97 0
-898 -1246 0
-899 1245 0
-899 97 0
-900 92 0
-900 -1245 0
-901 95 0
-901 -1245 0
-902 92 0
-902 95 0
-903 1267 0
-903 -1268 0
-904 89 0
-904 -1268 0
-905 1267 0
-905 89 0
-906 1266 0
-906 -1267 0
-907 90 0
-907 -1267 0
-908 1266 0
-908 90 0
-909 92 0
-909 -1266 0
-910 91 0
-910 -1266 0
-911 92 0
-911 91 0
-912 1265 0
-912 89 0
-913 1264 0
-913 -1265 0
-914 93 0
-914 -1265 0
-915 1264 0
-915 93 0
-916 95 0
-916 -1264 0
-917 94 0
-917 -1264 0
-918 95 0
-918 94 0
-919 1263 0
-919 90 0
-920 1263 0
-920 93 0
-921 97 0
-921 -1263 0
-922 96 0
-922 -1263 0
-923 97 0
-923 96 0
-924 93 0
-924 -1262 0
-925 90 0
-925 -1262 0
-926 93 0
-926 90 0
-927 98 0
-927 91 0
-928 98 0
-928 94 0
-929 98 0
-929 96 0
-930 1260 0
-930 -1261 0
-931 91 0
-931 -1261 0
-932 1260 0
-932 91 0
-933 96 0
-933 -1260 0
-934 94 0
-934 -1260 0
-935 96 0
-935 94 0
-936 1258 0
-936 -1259 0
-937 92 0
-937 -1259 0
-938 1258 0
-938 92 0
-939 1257 0
-939 -1258 0
-940 95 0
-940 -1258 0
-941 1257 0
-941 95 0
-942 98 0
-942 -1257 0
-943 97 0
-943 -1257 0
-944 98 0
-944 97 0
-945 1299 0
-945 -1300 0
-946 102 0
-946 -1300 0
-947 1299 0
-947 102 0
-948 1298 0
-948 -1299 0
-949 101 0
-949 -1299 0
-950 1298 0
-950 101 0
-951 99 0
-951 -1298 0
-952 100 0
-952 -1298 0
-953 99 0
-953 100 0
-954 1296 0
-954 -1297 0
-955 105 0
-955 -1297 0
-956 1296 0
-956 105 0
-957 103 0
-957 -1296 0
-958 104 0
-958 -1296 0
-959 103 0
-959 104 0
-960 99 0
-960 105 0
-961 99 0
-961 104 0
-962 99 0
-962 103 0
-963 106 0
-963 -1295 0
-964 107 0
-964 -1295 0
-965 106 0
-965 107 0
-966 1294 0
-966 107 0
-967 1294 0
-967 106 0
-968 100 0
-968 -1294 0
-969 103 0
-969 -1294 0
-970 100 0
-970 103 0
-971 1293 0
-971 108 0
-972 1292 0
-972 -1293 0
-973 106 0
-973 -1293 0
-974 1292 0
-974 106 0
-975 101 0
-975 -1292 0
-976 104 0
-976 -1292 0
-977 101 0
-977 104 0
-978 1290 0
-978 -1291 0
-979 108 0
-979 -1291 0
-980 1290 0
-980 108 0
-981 1289 0
-981 -1290 0
-982 107 0
-982 -1290 0
-983 1289 0
-983 107 0
-984 102 0
-984 -1289 0
-985 105 0
-985 -1289 0
-986 102 0
-986 105 0
-987 1311 0
-987 -1312 0
-988 99 0
-988 -1312 0
-989 1311 0
-989 99 0
-990 1310 0
-990 -1311 0
-991 100 0
-991 -1311 0
-992 1310 0
-992 100 0
-993 102 0
-993 -1310 0
-994 101 0
-994 -1310 0
-995 102 0
-995 101 0
-996 1309 0
-996 99 0
-997 1308 0
-997 -1309 0
-998 103 0
-998 -1309 0
-999 1308 0
-999 103 0
-1000 105 0
-1000 -1308 0
-1001 104 0
-1001 -1308 0
-1002 105 0
-1002 104 0
-1003 1307 0
-1003 100 0
-1004 1307 0
-1004 103 0
-1005 107 0
-1005 -1307 0
-1006 106 0
-1006 -1307 0
-1007 107 0
-1007 106 0
-1008 103 0
-1008 -1306 0
-1009 100 0
-1009 -1306 0
-1010 103 0
-1010 100 0
-1011 108 0
-1011 101 0
-1012 108 0
-1012 104 0
-1013 108 0
-1013 106 0
-1014 1304 0
-1014 -1305 0
-1015 101 0
-1015 -1305 0
-1016 1304 0
-1016 101 0
-1017 106 0
-1017 -1304 0
-1018 104 0
-1018 -1304 0
-1019 106 0
-1019 104 0
-1020 1302 0
-1020 -1303 0
-1021 102 0
-1021 -1303 0
-1022 1302 0
-1022 102 0
-1023 1301 0
-1023 -1302 0
-1024 105 0
-1024 -1302 0
-1025 1301 0
-1025 105 0
-1026 108 0
-1026 -1301 0
-1027 107 0
-1027 -1301 0
-1028 108 0
-1028 107 0
-1029 1343 0
-1029 -1344 0
-1030 112 0
-1030 -1344 0
-1031 1343 0
-1031 112 0
-1032 1342 0
-1032 -1343 0
-1033 111 0
-1033 -1343 0
-1034 1342 0
-1034 111 0
-1035 109 0
-1035 -1342 0
-1036 110 0
-1036 -1342 0
-1037 109 0
-1037 110 0
-1038 1340 0
-1038 -1341 0
-1039 115 0
-1039 -1341 0
-1040 1340 0
-1040 115 0
-1041 113 0
-1041 -1340 0
-1042 114 0
-1042 -1340 0
-1043 113 0
-1043 114 0
-1044 109 0
-1044 115 0
-1045 109 0
-1045 114 0
-1046 109 0
-1046 113 0
-1047 116 0
-1047 -1339 0
-1048 117 0
-1048 -1339 0
-1049 116 0
-1049 117 0
-1050 1338 0
-1050 117 0
-1051 1338 0
-1051 116 0
-1052 110 0
-1052 -1338 0
-1053 113 0
-1053 -1338 0
-1054 110 0
-1054 113 0
-1055 1337 0
-1055 118 0
-1056 1336 0
-1056 -1337 0
-1057 116 0
-1057 -1337 0
-1058 1336 0
-1058 116 0
-1059 111 0
-1059 -1336 0
-1060 114 0
-1060 -1336 0
-1061 111 0
-1061 114 0
-1062 1334 0
-1062 -1335 0
-1063 118 0
-1063 -1335 0
-1064 1334 0
-1064 118 0
-1065 1333 0
-1065 -1334 0
-1066 117 0
-1066 -1334 0
-1067 1333 0
-1067 117 0
-1068 112 0
-1068 -1333 0
-1069 115 0
-1069 -1333 0
-1070 112 0
-1070 115 0
-1071 1355 0
-1071 -1356 0
-1072 109 0
-1072 -1356 0
-1073 1355 0
-1073 109 0
-1074 1354 0
-1074 -1355 0
-1075 110 0
-1075 -1355 0
-1076 1354 0
-1076 110 0
-1077 112 0
-1077 -1354 0
-1078 111 0
-1078 -1354 0
-1079 112 0
-1079 111 0
-1080 1353 0
-1080 109 0
-1081 1352 0
-1081 -1353 0
-1082 113 0
-1082 -1353 0
-1083 1352 0
-1083 113 0
-1084 115 0
-1084 -1352 0
-1085 114 0
-1085 -1352 0
-1086 115 0
-1086 114 0
-1087 1351 0
-1087 110 0
-1088 1351 0
-1088 113 0
-1089 117 0
-1089 -1351 0
-1090 116 0
-1090 -1351 0
-1091 117 0
-1091 116 0
-1092 113 0
-1092 -1350 0
-1093 110 0
-1093 -1350 0
-1094 113 0
-1094 110 0
-1095 118 0
-1095 111 0
-1096 118 0
-1096 114 0
-1097 118 0
-1097 116 0
-1098 1348 0
-1098 -1349 0
-1099 111 0
-1099 -1349 0
-1100 1348 0
-1100 111 0
-1101 116 0
-1101 -1348 0
-1102 114 0
-1102 -1348 0
-1103 116 0
-1103 114 0
-1104 1346 0
-1104 -1347 0
-1105 112 0
-1105 -1347 0
-1106 1346 0
-1106 112 0
-1107 1345 0
-1107 -1346 0
-1108 115 0
-1108 -1346 0
-1109 1345 0
-1109 115 0
-1110 118 0
-1110 -1345 0
-1111 117 0
-1111 -1345 0
-1112 118 0
-1112 117 0
-513 1 -7 0
-513 -1 7 146 145 144 143 0
-513 -146 512 0
-513 -49 -1 2 146 0
-513 -145 511 0
-513 -50 -1 3 145 0
-513 -144 510 0
-513 -51 -1 4 144 0
-513 -143 509 0
-513 -52 -1 5 143 0
-513 2 -8 147 0
-513 -2 8 150 149 148 0
-513 -147 508 0
-513 -49 -1 2 147 0
-513 -150 507 0
-513 -53 -2 3 150 0
-513 -149 506 0
-513 -54 -2 4 149 0
-513 -148 505 0
-513 -55 -2 5 148 0
-513 3 -9 152 151 0
-513 -3 9 154 153 0
-513 -152 504 0
-513 -50 -1 3 152 0
-513 -151 503 0
-513 -53 -2 3 151 0
-513 -154 502 0
-513 -56 -3 4 154 0
-513 -153 501 0
-513 -57 -3 5 153 0
-513 4 -10 157 156 155 0
-513 -4 10 158 0
-513 -157 500 0
-513 -51 -1 4 157 0
-513 -156 499 0
-513 -54 -2 4 156 0
-513 -155 498 0
-513 -56 -3 4 155 0
-513 -158 497 0
-513 -58 -4 5 158 0
-513 5 -11 162 161 160 159 0
-513 -5 11 0
-513 -162 496 0
-513 -52 -1 5 162 0
-513 -161 495 0
-513 -55 -2 5 161 0
-513 -160 494 0
-513 -57 -3 5 160 0
-513 -159 493 0
-513 -58 -4 5 159 0
-513 6 -12 0
-513 -6 12 0
-513 491 492 0
-513 489 490 0
-513 487 488 0
-513 485 486 0
-513 483 484 0
-513 481 482 0
-513 479 480 0
-513 477 478 0
-513 475 476 0
-513 473 474 0
-513 462 463 464 465 466 467 468 469 470 471 472 0
-514 0
-515 0
-516 0
-517 0
-518 0
-519 0
-520 0
-521 0
-522 0
-523 0
-512 49 0
-512 1 0
-512 -2 0
-511 50 0
-511 1 0
-511 -3 0
-510 51 0
-510 1 0
-510 -4 0
-509 52 0
-509 1 0
-509 -5 0
-508 49 0
-508 1 0
-508 -2 0
-507 53 0
-507 2 0
-507 -3 0
-506 54 0
-506 2 0
-506 -4 0
-505 55 0
-505 2 0
-505 -5 0
-504 50 0
-504 1 0
-504 -3 0
-503 53 0
-503 2 0
-503 -3 0
-502 56 0
-502 3 0
-502 -4 0
-501 57 0
-501 3 0
-501 -5 0
-500 51 0
-500 1 0
-500 -4 0
-499 54 0
-499 2 0
-499 -4 0
-498 56 0
-498 3 0
-498 -4 0
-497 58 0
-497 4 0
-497 -5 0
-496 52 0
-496 1 0
-496 -5 0
-495 55 0
-495 2 0
-495 -5 0
-494 57 0
-494 3 0
-494 -5 0
-493 58 0
-493 4 0
-493 -5 0
-491 -49 -1 2 0
-492 -7 0
-492 8 0
-489 -50 -1 3 0
-490 -7 0
-490 9 0
-487 -51 -1 4 0
-488 -7 0
-488 10 0
-485 -52 -1 5 0
-486 -7 0
-486 11 0
-483 -53 -2 3 0
-484 -8 0
-484 9 0
-481 -54 -2 4 0
-482 -8 0
-482 10 0
-479 -55 -2 5 0
-480 -8 0
-480 11 0
-477 -56 -3 4 0
-478 -9 0
-478 10 0
-475 -57 -3 5 0
-476 -9 0
-476 11 0
-473 -58 -4 5 0
-474 -10 0
-474 11 0
-462 7 -13 0
-462 -7 13 1140 1139 1138 1137 0
-462 -1140 461 0
-462 -59 -7 8 1140 0
-462 -1139 460 0
-462 -60 -7 9 1139 0
-462 -1138 459 0
-462 -61 -7 10 1138 0
-462 -1137 458 0
-462 -62 -7 11 1137 0
-462 8 -14 1141 0
-462 -8 14 1144 1143 1142 0
-462 -1141 457 0
-462 -59 -7 8 1141 0
-462 -1144 456 0
-462 -63 -8 9 1144 0
-462 -1143 455 0
-462 -64 -8 10 1143 0
-462 -1142 454 0
-462 -65 -8 11 1142 0
-462 9 -15 1146 1145 0
-462 -9 15 1148 1147 0
-462 -1146 453 0
-462 -60 -7 9 1146 0
-462 -1145 452 0
-462 -63 -8 9 1145 0
-462 -1148 451 0
-462 -66 -9 10 1148 0
-462 -1147 450 0
-462 -67 -9 11 1147 0
-462 10 -16 1151 1150 1149 0
-462 -10 16 1152 0
-462 -1151 449 0
-462 -61 -7 10 1151 0
-462 -1150 448 0
-462 -64 -8 10 1150 0
-462 -1149 447 0
-462 -66 -9 10 1149 0
-462 -1152 446 0
-462 -68 -10 11 1152 0
-462 11 -17 1156 1155 1154 1153 0
-462 -11 17 0
-462 -1156 445 0
-462 -62 -7 11 1156 0
-462 -1155 444 0
-462 -65 -8 11 1155 0
-462 -1154 443 0
-462 -67 -9 11 1154 0
-462 -1153 442 0
-462 -68 -10 11 1153 0
-462 12 -18 0
-462 -12 18 0
-462 440 441 0
-462 438 439 0
-462 436 437 0
-462 434 435 0
-462 432 433 0
-462 430 431 0
-462 428 429 0
-462 426 427 0
-462 424 425 0
-462 422 423 0
-462 411 412 413 414 415 416 417 418 419 420 421 0
-463 0
-464 0
-465 0
-466 0
-467 0
-468 0
-469 0
-470 0
-471 0
-472 0
-461 59 0
-461 7 0
-461 -8 0
-460 60 0
-460 7 0
-460 -9 0
-459 61 0
-459 7 0
-459 -10 0
-458 62 0
-458 7 0
-458 -11 0
-457 59 0
-457 7 0
-457 -8 0
-456 63 0
-456 8 0
-456 -9 0
-455 64 0
-455 8 0
-455 -10 0
-454 65 0
-454 8 0
-454 -11 0
-453 60 0
-453 7 0
-453 -9 0
-452 63 0
-452 8 0
-452 -9 0
-451 66 0
-451 9 0
-451 -10 0
-450 67 0
-450 9 0
-450 -11 0
-449 61 0
-449 7 0
-449 -10 0
-448 64 0
-448 8 0
-448 -10 0
-447 66 0
-447 9 0
-447 -10 0
-446 68 0
-446 10 0
-446 -11 0
-445 62 0
-445 7 0
-445 -11 0
-444 65 0
-444 8 0
-444 -11 0
-443 67 0
-443 9 0
-443 -11 0
-442 68 0
-442 10 0
-442 -11 0
-440 -59 -7 8 0
-441 -13 0
-441 14 0
-438 -60 -7 9 0
-439 -13 0
-439 15 0
-436 -61 -7 10 0
-437 -13 0
-437 16 0
-434 -62 -7 11 0
-435 -13 0
-435 17 0
-432 -63 -8 9 0
-433 -14 0
-433 15 0
-430 -64 -8 10 0
-431 -14 0
-431 16 0
-428 -65 -8 11 0
-429 -14 0
-429 17 0
-426 -66 -9 10 0
-427 -15 0
-427 16 0
-424 -67 -9 11 0
-425 -15 0
-425 17 0
-422 -68 -10 11 0
-423 -16 0
-423 17 0
-411 13 -19 0
-411 -13 19 1184 1183 1182 1181 0
-411 -1184 410 0
-411 -69 -13 14 1184 0
-411 -1183 409 0
-411 -70 -13 15 1183 0
-411 -1182 408 0
-411 -71 -13 16 1182 0
-411 -1181 407 0
-411 -72 -13 17 1181 0
-411 14 -20 1185 0
-411 -14 20 1188 1187 1186 0
-411 -1185 406 0
-411 -69 -13 14 1185 0
-411 -1188 405 0
-411 -73 -14 15 1188 0
-411 -1187 404 0
-411 -74 -14 16 1187 0
-411 -1186 403 0
-411 -75 -14 17 1186 0
-411 15 -21 1190 1189 0
-411 -15 21 1192 1191 0
-411 -1190 402 0
-411 -70 -13 15 1190 0
-411 -1189 401 0
-411 -73 -14 15 1189 0
-411 -1192 400 0
-411 -76 -15 16 1192 0
-411 -1191 399 0
-411 -77 -15 17 1191 0
-411 16 -22 1195 1194 1193 0
-411 -16 22 1196 0
-411 -1195 398 0
-411 -71 -13 16 1195 0
-411 -1194 397 0
-411 -74 -14 16 1194 0
-411 -1193 396 0
-411 -76 -15 16 1193 0
-411 -1196 395 0
-411 -78 -16 17 1196 0
-411 17 -23 1200 1199 1198 1197 0
-411 -17 23 0
-411 -1200 394 0
-411 -72 -13 17 1200 0
-411 -1199 393 0
-411 -75 -14 17 1199 0
-411 -1198 392 0
-411 -77 -15 17 1198 0
-411 -1197 391 0
-411 -78 -16 17 1197 0
-411 18 -24 0
-411 -18 24 0
-411 389 390 0
-411 387 388 0
-411 385 386 0
-411 383 384 0
-411 381 382 0
-411 379 380 0
-411 377 378 0
-411 375 376 0
-411 373 374 0
-411 371 372 0
-411 360 361 362 363 364 365 366 367 368 369 370 0
-412 0
-413 0
-414 0
-415 0
-416 0
-417 0
-418 0
-419 0
-420 0
-421 0
-410 69 0
-410 13 0
-410 -14 0
-409 70 0
-409 13 0
-409 -15 0
-408 71 0
-408 13 0
-408 -16 0
-407 72 0
-407 13 0
-407 -17 0
-406 69 0
-406 13 0
-406 -14 0
-405 73 0
-405 14 0
-405 -15 0
-404 74 0
-404 14 0
-404 -16 0
-403 75 0
-403 14 0
-403 -17 0
-402 70 0
-402 13 0
-402 -15 0
-401 73 0
-401 14 0
-401 -15 0
-400 76 0
-400 15 0
-400 -16 0
-399 77 0
-399 15 0
-399 -17 0
-398 71 0
-398 13 0
-398 -16 0
-397 74 0
-397 14 0
-397 -16 0
-396 76 0
-396 15 0
-396 -16 0
-395 78 0
-395 16 0
-395 -17 0
-394 72 0
-394 13 0
-394 -17 0
-393 75 0
-393 14 0
-393 -17 0
-392 77 0
-392 15 0
-392 -17 0
-391 78 0
-391 16 0
-391 -17 0
-389 -69 -13 14 0
-390 -19 0
-390 20 0
-387 -70 -13 15 0
-388 -19 0
-388 21 0
-385 -71 -13 16 0
-386 -19 0
-386 22 0
-383 -72 -13 17 0
-384 -19 0
-384 23 0
-381 -73 -14 15 0
-382 -20 0
-382 21 0
-379 -74 -14 16 0
-380 -20 0
-380 22 0
-377 -75 -14 17 0
-378 -20 0
-378 23 0
-375 -76 -15 16 0
-376 -21 0
-376 22 0
-373 -77 -15 17 0
-374 -21 0
-374 23 0
-371 -78 -16 17 0
-372 -22 0
-372 23 0
-360 19 -25 0
-360 -19 25 1228 1227 1226 1225 0
-360 -1228 359 0
-360 -79 -19 20 1228 0
-360 -1227 358 0
-360 -80 -19 21 1227 0
-360 -1226 357 0
-360 -81 -19 22 1226 0
-360 -1225 356 0
-360 -82 -19 23 1225 0
-360 20 -26 1229 0
-360 -20 26 1232 1231 1230 0
-360 -1229 355 0
-360 -79 -19 20 1229 0
-360 -1232 354 0
-360 -83 -20 21 1232 0
-360 -1231 353 0
-360 -84 -20 22 1231 0
-360 -1230 352 0
-360 -85 -20 23 1230 0
-360 21 -27 1234 1233 0
-360 -21 27 1236 1235 0
-360 -1234 351 0
-360 -80 -19 21 1234 0
-360 -1233 350 0
-360 -83 -20 21 1233 0
-360 -1236 349 0
-360 -86 -21 22 1236 0
-360 -1235 348 0
-360 -87 -21 23 1235 0
-360 22 -28 1239 1238 1237 0
-360 -22 28 1240 0
-360 -1239 347 0
-360 -81 -19 22 1239 0
-360 -1238 346 0
-360 -84 -20 22 1238 0
-360 -1237 345 0
-360 -86 -21 22 1237 0
-360 -1240 344 0
-360 -88 -22 23 1240 0
-360 23 -29 1244 1243 1242 1241 0
-360 -23 29 0
-360 -1244 343 0
-360 -82 -19 23 1244 0
-360 -1243 342 0
-360 -85 -20 23 1243 0
-360 -1242 341 0
-360 -87 -21 23 1242 0
-360 -1241 340 0
-360 -88 -22 23 1241 0
-360 24 -30 0
-360 -24 30 0
-360 338 339 0
-360 336 337 0
-360 334 335 0
-360 332 333 0
-360 330 331 0
-360 328 329 0
-360 326 327 0
-360 324 325 0
-360 322 323 0
-360 320 321 0
-360 309 310 311 312 313 314 315 316 317 318 319 0
-361 0
-362 0
-363 0
-364 0
-365 0
-366 0
-367 0
-368 0
-369 0
-370 0
-359 79 0
-359 19 0
-359 -20 0
-358 80 0
-358 19 0
-358 -21 0
-357 81 0
-357 19 0
-357 -22 0
-356 82 0
-356 19 0
-356 -23 0
-355 79 0
-355 19 0
-355 -20 0
-354 83 0
-354 20 0
-354 -21 0
-353 84 0
-353 20 0
-353 -22 0
-352 85 0
-352 20 0
-352 -23 0
-351 80 0
-351 19 0
-351 -21 0
-350 83 0
-350 20 0
-350 -21 0
-349 86 0
-349 21 0
-349 -22 0
-348 87 0
-348 21 0
-348 -23 0
-347 81 0
-347 19 0
-347 -22 0
-346 84 0
-346 20 0
-346 -22 0
-345 86 0
-345 21 0
-345 -22 0
-344 88 0
-344 22 0
-344 -23 0
-343 82 0
-343 19 0
-343 -23 0
-342 85 0
-342 20 0
-342 -23 0
-341 87 0
-341 21 0
-341 -23 0
-340 88 0
-340 22 0
-340 -23 0
-338 -79 -19 20 0
-339 -25 0
-339 26 0
-336 -80 -19 21 0
-337 -25 0
-337 27 0
-334 -81 -19 22 0
-335 -25 0
-335 28 0
-332 -82 -19 23 0
-333 -25 0
-333 29 0
-330 -83 -20 21 0
-331 -26 0
-331 27 0
-328 -84 -20 22 0
-329 -26 0
-329 28 0
-326 -85 -20 23 0
-327 -26 0
-327 29 0
-324 -86 -21 22 0
-325 -27 0
-325 28 0
-322 -87 -21 23 0
-323 -27 0
-323 29 0
-320 -88 -22 23 0
-321 -28 0
-321 29 0
-309 25 -31 0
-309 -25 31 1272 1271 1270 1269 0
-309 -1272 308 0
-309 -89 -25 26 1272 0
-309 -1271 307 0
-309 -90 -25 27 1271 0
-309 -1270 306 0
-309 -91 -25 28 1270 0
-309 -1269 305 0
-309 -92 -25 29 1269 0
-309 26 -32 1273 0
-309 -26 32 1276 1275 1274 0
-309 -1273 304 0
-309 -89 -25 26 1273 0
-309 -1276 303 0
-309 -93 -26 27 1276 0
-309 -1275 302 0
-309 -94 -26 28 1275 0
-309 -1274 301 0
-309 -95 -26 29 1274 0
-309 27 -33 1278 1277 0
-309 -27 33 1280 1279 0
-309 -1278 300 0
-309 -90 -25 27 1278 0
-309 -1277 299 0
-309 -93 -26 27 1277 0
-309 -1280 298 0
-309 -96 -27 28 1280 0
-309 -1279 297 0
-309 -97 -27 29 1279 0
-309 28 -34 1283 1282 1281 0
-309 -28 34 1284 0
-309 -1283 296 0
-309 -91 -25 28 1283 0
-309 -1282 295 0
-309 -94 -26 28 1282 0
-309 -1281 294 0
-309 -96 -27 28 1281 0
-309 -1284 293 0
-309 -98 -28 29 1284 0
-309 29 -35 1288 1287 1286 1285 0
-309 -29 35 0
-309 -1288 292 0
-309 -92 -25 29 1288 0
-309 -1287 291 0
-309 -95 -26 29 1287 0
-309 -1286 290 0
-309 -97 -27 29 1286 0
-309 -1285 289 0
-309 -98 -28 29 1285 0
-309 30 -36 0
-309 -30 36 0
-309 287 288 0
-309 285 286 0
-309 283 284 0
-309 281 282 0
-309 279 280 0
-309 277 278 0
-309 275 276 0
-309 273 274 0
-309 271 272 0
-309 269 270 0
-309 258 259 260 261 262 263 264 265 266 267 268 0
-310 0
-311 0
-312 0
-313 0
-314 0
-315 0
-316 0
-317 0
-318 0
-319 0
-308 89 0
-308 25 0
-308 -26 0
-307 90 0
-307 25 0
-307 -27 0
-306 91 0
-306 25 0
-306 -28 0
-305 92 0
-305 25 0
-305 -29 0
-304 89 0
-304 25 0
-304 -26 0
-303 93 0
-303 26 0
-303 -27 0
-302 94 0
-302 26 0
-302 -28 0
-301 95 0
-301 26 0
-301 -29 0
-300 90 0
-300 25 0
-300 -27 0
-299 93 0
-299 26 0
-299 -27 0
-298 96 0
-298 27 0
-298 -28 0
-297 97 0
-297 27 0
-297 -29 0
-296 91 0
-296 25 0
-296 -28 0
-295 94 0
-295 26 0
-295 -28 0
-294 96 0
-294 27 0
-294 -28 0
-293 98 0
-293 28 0
-293 -29 0
-292 92 0
-292 25 0
-292 -29 0
-291 95 0
-291 26 0
-291 -29 0
-290 97 0
-290 27 0
-290 -29 0
-289 98 0
-289 28 0
-289 -29 0
-287 -89 -25 26 0
-288 -31 0
-288 32 0
-285 -90 -25 27 0
-286 -31 0
-286 33 0
-283 -91 -25 28 0
-284 -31 0
-284 34 0
-281 -92 -25 29 0
-282 -31 0
-282 35 0
-279 -93 -26 27 0
-280 -32 0
-280 33 0
-277 -94 -26 28 0
-278 -32 0
-278 34 0
-275 -95 -26 29 0
-276 -32 0
-276 35 0
-273 -96 -27 28 0
-274 -33 0
-274 34 0
-271 -97 -27 29 0
-272 -33 0
-272 35 0
-269 -98 -28 29 0
-270 -34 0
-270 35 0
-258 31 -37 0
-258 -31 37 1316 1315 1314 1313 0
-258 -1316 257 0
-258 -99 -31 32 1316 0
-258 -1315 256 0
-258 -100 -31 33 1315 0
-258 -1314 255 0
-258 -101 -31 34 1314 0
-258 -1313 254 0
-258 -102 -31 35 1313 0
-258 32 -38 1317 0
-258 -32 38 1320 1319 1318 0
-258 -1317 253 0
-258 -99 -31 32 1317 0
-258 -1320 252 0
-258 -103 -32 33 1320 0
-258 -1319 251 0
-258 -104 -32 34 1319 0
-258 -1318 250 0
-258 -105 -32 35 1318 0
-258 33 -39 1322 1321 0
-258 -33 39 1324 1323 0
-258 -1322 249 0
-258 -100 -31 33 1322 0
-258 -1321 248 0
-258 -103 -32 33 1321 0
-258 -1324 247 0
-258 -106 -33 34 1324 0
-258 -1323 246 0
-258 -107 -33 35 1323 0
-258 34 -40 1327 1326 1325 0
-258 -34 40 1328 0
-258 -1327 245 0
-258 -101 -31 34 1327 0
-258 -1326 244 0
-258 -104 -32 34 1326 0
-258 -1325 243 0
-258 -106 -33 34 1325 0
-258 -1328 242 0
-258 -108 -34 35 1328 0
-258 35 -41 1332 1331 1330 1329 0
-258 -35 41 0
-258 -1332 241 0
-258 -102 -31 35 1332 0
-258 -1331 240 0
-258 -105 -32 35 1331 0
-258 -1330 239 0
-258 -107 -33 35 1330 0
-258 -1329 238 0
-258 -108 -34 35 1329 0
-258 36 -42 0
-258 -36 42 0
-258 236 237 0
-258 234 235 0
-258 232 233 0
-258 230 231 0
-258 228 229 0
-258 226 227 0
-258 224 225 0
-258 222 223 0
-258 220 221 0
-258 218 219 0
-258 207 208 209 210 211 212 213 214 215 216 217 0
-259 0
-260 0
-261 0
-262 0
-263 0
-264 0
-265 0
-266 0
-267 0
-268 0
-257 99 0
-257 31 0
-257 -32 0
-256 100 0
-256 31 0
-256 -33 0
-255 101 0
-255 31 0
-255 -34 0
-254 102 0
-254 31 0
-254 -35 0
-253 99 0
-253 31 0
-253 -32 0
-252 103 0
-252 32 0
-252 -33 0
-251 104 0
-251 32 0
-251 -34 0
-250 105 0
-250 32 0
-250 -35 0
-249 100 0
-249 31 0
-249 -33 0
-248 103 0
-248 32 0
-248 -33 0
-247 106 0
-247 33 0
-247 -34 0
-246 107 0
-246 33 0
-246 -35 0
-245 101 0
-245 31 0
-245 -34 0
-244 104 0
-244 32 0
-244 -34 0
-243 106 0
-243 33 0
-243 -34 0
-242 108 0
-242 34 0
-242 -35 0
-241 102 0
-241 31 0
-241 -35 0
-240 105 0
-240 32 0
-240 -35 0
-239 107 0
-239 33 0
-239 -35 0
-238 108 0
-238 34 0
-238 -35 0
-236 -99 -31 32 0
-237 -37 0
-237 38 0
-234 -100 -31 33 0
-235 -37 0
-235 39 0
-232 -101 -31 34 0
-233 -37 0
-233 40 0
-230 -102 -31 35 0
-231 -37 0
-231 41 0
-228 -103 -32 33 0
-229 -38 0
-229 39 0
-226 -104 -32 34 0
-227 -38 0
-227 40 0
-224 -105 -32 35 0
-225 -38 0
-225 41 0
-222 -106 -33 34 0
-223 -39 0
-223 40 0
-220 -107 -33 35 0
-221 -39 0
-221 41 0
-218 -108 -34 35 0
-219 -40 0
-219 41 0
-207 37 -43 0
-207 -37 43 1360 1359 1358 1357 0
-207 -1360 206 0
-207 -109 -37 38 1360 0
-207 -1359 205 0
-207 -110 -37 39 1359 0
-207 -1358 204 0
-207 -111 -37 40 1358 0
-207 -1357 203 0
-207 -112 -37 41 1357 0
-207 38 -44 1361 0
-207 -38 44 1364 1363 1362 0
-207 -1361 202 0
-207 -109 -37 38 1361 0
-207 -1364 201 0
-207 -113 -38 39 1364 0
-207 -1363 200 0
-207 -114 -38 40 1363 0
-207 -1362 199 0
-207 -115 -38 41 1362 0
-207 39 -45 1366 1365 0
-207 -39 45 1368 1367 0
-207 -1366 198 0
-207 -110 -37 39 1366 0
-207 -1365 197 0
-207 -113 -38 39 1365 0
-207 -1368 196 0
-207 -116 -39 40 1368 0
-207 -1367 195 0
-207 -117 -39 41 1367 0
-207 40 -46 1371 1370 1369 0
-207 -40 46 1372 0
-207 -1371 194 0
-207 -111 -37 40 1371 0
-207 -1370 193 0
-207 -114 -38 40 1370 0
-207 -1369 192 0
-207 -116 -39 40 1369 0
-207 -1372 191 0
-207 -118 -40 41 1372 0
-207 41 -47 1376 1375 1374 1373 0
-207 -41 47 0
-207 -1376 190 0
-207 -112 -37 41 1376 0
-207 -1375 189 0
-207 -115 -38 41 1375 0
-207 -1374 188 0
-207 -117 -39 41 1374 0
-207 -1373 187 0
-207 -118 -40 41 1373 0
-207 42 -48 0
-207 -42 48 0
-207 185 186 0
-207 183 184 0
-207 181 182 0
-207 179 180 0
-207 177 178 0
-207 175 176 0
-207 173 174 0
-207 171 172 0
-207 169 170 0
-207 167 168 0
-207 163 164 165 166 0
-208 0
-209 0
-210 0
-211 0
-212 0
-213 0
-214 0
-215 0
-216 0
-217 0
-206 109 0
-206 37 0
-206 -38 0
-205 110 0
-205 37 0
-205 -39 0
-204 111 0
-204 37 0
-204 -40 0
-203 112 0
-203 37 0
-203 -41 0
-202 109 0
-202 37 0
-202 -38 0
-201 113 0
-201 38 0
-201 -39 0
-200 114 0
-200 38 0
-200 -40 0
-199 115 0
-199 38 0
-199 -41 0
-198 110 0
-198 37 0
-198 -39 0
-197 113 0
-197 38 0
-197 -39 0
-196 116 0
-196 39 0
-196 -40 0
-195 117 0
-195 39 0
-195 -41 0
-194 111 0
-194 37 0
-194 -40 0
-193 114 0
-193 38 0
-193 -40 0
-192 116 0
-192 39 0
-192 -40 0
-191 118 0
-191 40 0
-191 -41 0
-190 112 0
-190 37 0
-190 -41 0
-189 115 0
-189 38 0
-189 -41 0
-188 117 0
-188 39 0
-188 -41 0
-187 118 0
-187 40 0
-187 -41 0
-185 -109 -37 38 0
-186 -43 0
-186 44 0
-183 -110 -37 39 0
-184 -43 0
-184 45 0
-181 -111 -37 40 0
-182 -43 0
-182 46 0
-179 -112 -37 41 0
-180 -43 0
-180 47 0
-177 -113 -38 39 0
-178 -44 0
-178 45 0
-175 -114 -38 40 0
-176 -44 0
-176 46 0
-173 -115 -38 41 0
-174 -44 0
-174 47 0
-171 -116 -39 40 0
-172 -45 0
-172 46 0
-169 -117 -39 41 0
-170 -45 0
-170 47 0
-167 -118 -40 41 0
-168 -46 0
-168 47 0
-163 43 0
-163 -44 0
-164 44 0
-164 -45 0
-165 45 0
-165 -46 0
-166 46 0
-166 -47 0
